CPXPARAM_Read_DataCheck                          1
Found incumbent of value 0.000000 after 0.00 sec. (0.04 ticks)
Tried aggregator 1 time.
MIP Presolve eliminated 10 rows and 0 columns.
MIP Presolve modified 1 coefficients.
Reduced MIP has 139 rows, 1515 columns, and 6551 nonzeros.
Reduced MIP has 1515 binaries, 0 generals, 0 SOSs, and 0 indicators.
Presolve time = 0.00 sec. (2.74 ticks)
Probing time = 0.00 sec. (2.40 ticks)
Tried aggregator 1 time.
Reduced MIP has 139 rows, 1515 columns, and 6551 nonzeros.
Reduced MIP has 1515 binaries, 0 generals, 0 SOSs, and 0 indicators.
Presolve time = 0.00 sec. (3.00 ticks)
Probing time = 0.00 sec. (2.40 ticks)
Clique table members: 4841.
MIP emphasis: balance optimality and feasibility.
MIP search method: dynamic search.
Parallel mode: deterministic, using up to 4 threads.
Root relaxation solution time = 0.02 sec. (4.26 ticks)

        Nodes                                         Cuts/
   Node  Left     Objective  IInf  Best Integer    Best Bound    ItCnt     Gap

*     0+    0                            0.0000     8896.0000              --- 
*     0+    0                          971.0000     8896.0000           816.17%
      0     0     5095.6700    15      971.0000     5095.6700      378  424.79%
      0     0     4967.7791    42      971.0000     Cuts: 150      448  411.61%
      0     0     4897.1885    70      971.0000  Cliques: 150      500  404.34%
      0     0     4483.5324   226      971.0000     Cuts: 150      787  361.74%
      0     0     4446.5366   238      971.0000     Cuts: 150      844  357.93%
*     0+    0                         2697.0000     4446.5366            64.87%
      0     0     3851.5861   265     2697.0000     Cuts: 150      998   27.26%
      0     0     3810.9553   283     2697.0000     Cuts: 150     1025   27.26%
      0     2     3810.9553   283     2697.0000     3157.3333     1025   17.07%
Elapsed time = 0.28 sec. (150.58 ticks, tree = 0.01 MB, solutions = 3)

GUB cover cuts applied:  2
Clique cuts applied:  624
Cover cuts applied:  19

Root node processing (before b&c):
  Real time             =    0.27 sec. (150.03 ticks)
Parallel b&c, 4 threads:
  Real time             =    0.13 sec. (69.28 ticks)
  Sync time (average)   =    0.02 sec.
  Wait time (average)   =    0.00 sec.
                          ------------
Total (root+branch&cut) =    0.39 sec. (219.31 ticks)
